
  22   10
  10   10   10   10   10   10   10   10   10   10

   0   0   0   0   0   0   0   0   0   0   0   4 2 4 5 6 
   2   0   0   0   0   0   0   0   0   0  10   1 3 
   9  10   0   0   0   0   0   0   0   0   0   2 17 7 
   2   0   0   0   0   0   0  10   0   0   0   2 17 8 
   8   0   0   0   0   0   0   0  10   0   0   1 7 
   3   0   0   0   0   0   0   0   0  10   0   2 17 9 
   9   0   0   0   0   0   0   0   0   0  10   1 8 
   6   0  10   0   0   0   0   0   0   0   0   1 9 
   1   0   0   0   0  10   0   0   0   0   0   2 21 10 
   3   0  10   0   0   0   0   0   0   0   0   3 16 12 11 
   9   0   0   0   0  10   0   0   0   0   0   3 20 14 13 
   3   0   0   0   0   0   0   0  10   0   0   3 20 19 18 
  10   0   0   0   0   0   0   0  10   0   0   2 19 18 
   1   0   0  10   0   0   0   0   0   0   0   1 15 
   5   0   0   0   0   0   0   0   0  10   0   1 18 
   4   0   0  10   0   0   0   0   0   0   0   1 20 
   4   0   0   0   0   0   0   0  10   0   0   1 19 
   3   0   0   0   0  10   0   0   0   0   0   1 22
   6   0   0   0   0   0  10   0   0   0   0   1 22
   3   0   0   0   0   0   0   0   0   0  10   1 22
   8   0   0   0  10   0   0   0   0   0   0   1 22
   0   0   0   0   0   0   0   0   0   0   0   0 
